
Gurobi 9.0.1 (mac64, Python) logging started Mon May 25 17:51:00 2020

Using license file /Users/patrick/gurobi.lic
Set parameter LogFile to value gurobi.log
Academic license - for non-commercial use only
